p gcnf 71 154 57
{0} -71 0
{1} 2 -15 0
{1} 1 -15 0
{1} -1 -2 15 0
{2} -2 -16 0
{2} -1 -16 0
{2} 1 2 16 0
{3} -16 -17 0
{3} -15 -17 0
{3} 15 16 17 0
{4} 4 -18 0
{4} 3 -18 0
{4} -3 -4 18 0
{5} -4 -19 0
{5} -3 -19 0
{5} 3 4 19 0
{6} -19 -20 0
{6} -18 -20 0
{6} 18 19 20 0
{7} 20 -21 0
{7} 17 -21 0
{7} -17 -20 21 0
{8} 5 -22 0
{8} 1 -22 0
{8} -1 -5 22 0
{9} -5 -23 0
{9} -1 -23 0
{9} 1 5 23 0
{10} -23 -24 0
{10} -22 -24 0
{10} 22 23 24 0
{11} 24 -25 0
{11} 21 -25 0
{11} -21 -24 25 0
{12} 8 -26 0
{12} 7 -26 0
{12} -7 -8 26 0
{13} -8 -27 0
{13} -7 -27 0
{13} 7 8 27 0
{14} -27 -28 0
{14} -26 -28 0
{14} 26 27 28 0
{15} 10 -29 0
{15} 9 -29 0
{15} -9 -10 29 0
{16} -10 -30 0
{16} -9 -30 0
{16} 9 10 30 0
{17} -30 -31 0
{17} -29 -31 0
{17} 29 30 31 0
{18} 31 -32 0
{18} 28 -32 0
{18} -28 -31 32 0
{19} 32 -33 0
{19} 6 -33 0
{19} -6 -32 33 0
{20} 33 -34 0
{20} 25 -34 0
{20} -25 -33 34 0
{21} -5 -35 0
{21} -4 -35 0
{21} 4 5 35 0
{22} 35 -36 0
{22} -7 -36 0
{22} 7 -35 36 0
{23} 36 -37 0
{23} -9 -37 0
{23} 9 -36 37 0
{24} 3 -38 0
{24} -2 -38 0
{24} 2 -3 38 0
{25} 38 -39 0
{25} 1 -39 0
{25} -1 -38 39 0
{26} 10 -40 0
{26} 8 -40 0
{26} -8 -10 40 0
{27} 40 -41 0
{27} 6 -41 0
{27} -6 -40 41 0
{28} 41 -42 0
{28} 39 -42 0
{28} -39 -41 42 0
{29} -42 -43 0
{29} 37 -43 0
{29} -37 42 43 0
{30} 5 -44 0
{30} 4 -44 0
{30} -4 -5 44 0
{31} 44 -45 0
{31} 7 -45 0
{31} -7 -44 45 0
{32} 45 -46 0
{32} 9 -46 0
{32} -9 -45 46 0
{33} -3 -47 0
{33} 2 -47 0
{33} -2 3 47 0
{34} 47 -48 0
{34} -1 -48 0
{34} 1 -47 48 0
{35} -10 -49 0
{35} -8 -49 0
{35} 8 10 49 0
{36} 49 -50 0
{36} 6 -50 0
{36} -6 -49 50 0
{37} 50 -51 0
{37} 48 -51 0
{37} -48 -50 51 0
{38} -51 -52 0
{38} 46 -52 0
{38} -46 51 52 0
{39} 52 -53 0
{39} -37 -53 0
{39} 37 -52 53 0
{40} -53 -54 0
{40} -43 -54 0
{40} 43 53 54 0
{41} -54 -55 0
{41} 34 -55 0
{41} -34 54 55 0
{45} -13 -59 0
{45} -12 -59 0
{45} 12 13 59 0
{49} 59 -63 0
{49} -14 -63 0
{49} 14 -59 63 0
{50} -63 -64 0
{50} 11 -64 0
{50} -11 63 64 0
{51} 63 -65 0
{51} -11 -65 0
{51} 11 -63 65 0
{52} -65 -66 0
{52} -64 -66 0
{52} 64 65 66 0
{53} -66 -67 0
{53} -62 -67 0
{53} 62 66 67 0
{54} 67 -68 0
{54} -58 -68 0
{54} 58 -67 68 0
{55} 68 -69 0
{55} 12 -69 0
{55} -12 -68 69 0
{56} 69 -70 0
{56} -11 -70 0
{56} 11 -69 70 0
{57} -70 -71 0
{57} -55 -71 0
{57} 55 70 71 0
